NAME: ACTUAL_TOURS/amz2956
TYPE: TOUR
COMMENT: RouteID_dd77583c-e1cd-4a52-aa4d-e24eea1fca94
DIMENSION: 178
TOUR_SECTION
101
111
161
28
100
57
58
48
47
43
65
141
33
21
152
136
64
11
116
106
162
170
131
53
31
105
169
34
120
89
27
113
50
119
70
130
107
20
154
88
133
148
5
83
146
93
68
56
41
35
55
92
18
115
178
171
38
158
9
51
15
71
174
90
80
94
149
74
164
110
79
104
155
125
143
156
172
24
63
168
86
44
166
138
95
25
132
73
77
29
160
81
91
176
17
127
82
157
112
16
26
87
32
114
117
10
66
129
3
109
128
153
99
173
42
14
150
72
103
108
45
126
167
121
163
137
147
118
19
159
97
49
30
84
36
177
67
124
13
175
37
85
6
12
46
39
139
7
134
123
144
8
22
98
96
59
23
1
40
142
165
122
4
60
54
151
135
2
62
78
76
140
61
145
52
69
102
75
-1
EOF
